1 1 -2 0
1 -3 4 0
1 -5 6 0
1 -7 8 0
1 -9 -10 0
1 -11 12 0
1 11 -13 0
1 -4 10 0
1 -14 15 0
1 -14 -16 0
1 17 -18 0
1 -16 -18 0
1 19 -16 0
1 20 -21 0
1 -20 -4 0
1 -20 -22 0
1 -23 14 0
1 23 -24 0
1 21 -25 0
1 21 20 0
1 22 26 0
1 -26 19 0
1 27 28 0
1 -29 30 0
1 31 -32 0
1 -6 -33 0
1 34 35 0
1 34 -27 0
1 32 -27 0
1 -30 29 0
1 -30 36 0
1 30 37 0
1 -13 -28 0
1 -13 -38 0
1 13 -39 0
1 13 -11 0
1 40 41 0
1 -33 -42 0
1 -41 8 0
1 41 31 0
1 43 -8 0
1 18 44 0
1 18 -45 0
1 42 -35 0
1 42 2 0
1 -46 39 0
1 -47 -48 0
1 47 -49 0
1 39 46 0
1 -44 -40 0
1 -44 46 0
1 -15 -50 0
1 15 -22 0
1 51 52 0
1 -53 54 0
1 -53 55 0
1 53 -22 0
1 -56 49 0
1 56 57 0
1 -49 58 0
1 49 15 0
1 54 -58 0
1 -52 -59 0
1 52 60 0
1 52 61 0
1 62 63 0
1 -57 64 0
1 57 -4 0
1 -64 65 0
1 64 -66 0
1 64 62 0
1 55 58 0
1 -55 -67 0
1 55 -62 0
1 -68 57 0
1 69 57 0
1 -70 -71 0
1 72 68 0
1 -72 24 0
1 -73 -69 0
1 73 74 0
1 -71 -75 0
1 -76 -26 0
1 77 78 0
1 77 -79 0
1 -80 -78 0
1 -80 31 0
1 -81 -82 0
1 -82 -83 0
1 -78 -84 0
1 -78 -37 0
1 -79 84 0
1 -79 85 0
1 86 87 0
1 -86 80 0
1 86 77 0
1 -88 89 0
1 88 90 0
1 -91 92 0
1 -91 30 0
1 -37 93 0
1 37 94 0
1 83 30 0
1 83 -37 0
1 95 37 0
1 89 -96 0
1 -89 -95 0
1 -89 97 0
1 -98 -99 0
1 -100 101 0
1 -100 -102 0
1 -100 -93 0
1 -101 -37 0
1 -99 -103 0
1 94 -98 0
1 94 37 0
1 93 104 0
1 -93 98 0
1 -93 -37 0
1 103 -50 0
1 103 -33 0
1 105 -101 0
1 106 107 0
1 -106 36 0
1 -106 44 0
1 -102 108 0
1 109 -103 0
1 109 100 0
1 109 -60 0
1 -110 -108 0
1 61 -38 0
1 61 111 0
1 61 -62 0
1 -59 -112 0
1 59 -113 0
1 -114 -59 0
1 -114 -60 0
1 -114 106 0
1 -111 -105 0
1 111 106 0
1 -115 116 0
1 115 117 0
1 115 118 0
1 115 -119 0
1 -58 120 0
1 58 114 0
1 -121 -122 0
1 121 68 0
1 -123 -124 0
1 67 -125 0
1 67 -124 0
1 126 127 0
1 -128 -127 0
1 -128 126 0
1 122 -129 0
1 122 130 0
1 -122 -119 0
1 -112 44 0
1 65 -55 0
1 -65 57 0
1 75 131 0
1 132 -133 0
1 132 134 0
1 135 -130 0
1 135 -136 0
1 -131 -137 0
1 133 -138 0
1 -124 -139 0
1 138 -131 0
1 -140 138 0
1 -137 -131 0
1 -141 -142 0
1 -142 -57 0
1 136 143 0
1 136 144 0
1 -134 135 0
1 -134 -145 0
1 -146 147 0
1 148 146 0
1 -149 147 0
1 147 -150 0
1 147 137 0
1 -151 -152 0
1 -151 -149 0
1 -153 150 0
1 -154 155 0
1 156 -157 0
1 156 155 0
1 156 81 0
1 -158 -154 0
1 -155 -159 0
1 92 160 0
1 -161 162 0
1 163 -158 0
1 164 159 0
1 165 -166 0
1 157 -166 0
1 -85 -167 0
1 -85 -82 0
1 85 78 0
1 85 -95 0
1 -168 167 0
1 -169 170 0
1 -171 -172 0
1 -171 -89 0
1 170 173 0
1 170 -163 0
1 174 169 0
1 167 -175 0
1 167 -176 0
1 -104 -170 0
1 177 -178 0
1 178 177 0
1 -179 -180 0
1 -181 -177 0
1 -182 -171 0
1 -182 -183 0
1 -182 175 0
1 87 104 0
1 -87 -86 0
1 -87 177 0
1 87 184 0
1 87 185 0
1 87 -186 0
1 -187 -101 0
1 187 -110 0
1 -113 -188 0
1 189 190 0
1 189 188 0
1 189 -179 0
1 189 -191 0
1 192 -117 0
1 192 193 0
1 192 -125 0
1 194 195 0
1 194 -187 0
1 194 178 0
1 -96 183 0
1 -96 -196 0
1 108 -107 0
1 118 -115 0
1 -118 184 0
1 118 192 0
1 117 115 0
1 -117 192 0
1 -125 -197 0
1 125 -198 0
1 191 -199 0
1 191 200 0
1 -191 -201 0
1 191 118 0
1 -197 193 0
1 -129 114 0
1 -202 -107 0
1 202 -198 0
1 203 -190 0
1 203 -188 0
1 -130 135 0
1 -204 -205 0
1 198 117 0
1 -206 203 0
1 206 207 0
1 206 201 0
1 206 202 0
1 -206 -125 0
1 208 202 0
1 -127 138 0
1 -209 -210 0
1 211 -124 0
1 -212 114 0
1 -213 -203 0
1 -213 -211 0
1 -213 -214 0
1 -213 -143 0
1 215 -216 0
1 -215 217 0
1 116 -203 0
1 116 -130 0
1 -143 218 0
1 -219 -134 0
1 -220 221 0
1 -220 -209 0
1 -222 211 0
1 222 223 0
1 -210 -224 0
1 210 -225 0
1 -210 -209 0
1 -145 -226 0
1 -145 136 0
1 227 -228 0
1 229 230 0
1 229 -231 0
1 -229 -227 0
1 229 -150 0
1 -226 -232 0
1 -226 219 0
1 226 -223 0
1 -218 -233 0
1 218 234 0
1 218 226 0
1 -150 235 0
1 -150 236 0
1 -231 236 0
1 231 237 0
1 -236 142 0
1 -236 -238 0
1 -239 231 0
1 -240 231 0
1 -240 -241 0
1 242 -243 0
1 -242 244 0
1 -237 245 0
1 246 247 0
1 246 231 0
1 243 248 0
1 -249 -250 0
1 251 252 0
1 253 254 0
1 -252 -255 0
1 -256 -257 0
1 258 -259 0
1 258 -260 0
1 -261 262 0
1 263 262 0
1 263 155 0
1 -263 259 0
1 -264 265 0
1 -264 -266 0
1 -264 260 0
1 265 267 0
1 254 -268 0
1 267 -269 0
1 -270 -155 0
1 -166 271 0
1 166 -157 0
1 -172 171 0
1 -172 -265 0
1 172 -272 0
1 172 -157 0
1 262 -273 0
1 274 -263 0
1 -274 -266 0
1 -272 -275 0
1 -276 -268 0
1 276 -277 0
1 176 -278 0
1 279 -178 0
1 -280 -281 0
1 282 -276 0
1 282 -158 0
1 -277 -172 0
1 -271 -277 0
1 186 280 0
1 283 185 0
1 284 -185 0
1 -284 -186 0
1 285 286 0
1 285 -186 0
1 287 -288 0
1 -287 289 0
1 287 281 0
1 -290 -291 0
1 -290 -176 0
1 290 -292 0
1 -183 179 0
1 184 182 0
1 -184 118 0
1 -293 -294 0
1 196 -125 0
1 295 -296 0
1 297 -183 0
1 -297 295 0
1 -298 299 0
1 298 -196 0
1 -200 129 0
1 200 300 0
1 193 297 0
1 -193 -202 0
1 301 -302 0
1 -301 -303 0
1 302 301 0
1 -302 303 0
1 302 191 0
1 180 -304 0
1 180 302 0
1 305 306 0
1 -305 -200 0
1 -300 -307 0
1 -300 -200 0
1 294 293 0
1 308 305 0
1 -308 -303 0
1 201 206 0
1 -201 -305 0
1 -306 -199 0
1 306 309 0
1 310 -306 0
1 310 180 0
1 310 311 0
1 311 -312 0
1 313 -314 0
1 -313 -315 0
1 313 -310 0
1 313 201 0
1 316 -96 0
1 317 -205 0
1 217 -317 0
1 -318 -306 0
1 -318 -217 0
1 -318 -319 0
1 -320 188 0
1 -199 -217 0
1 -199 310 0
1 321 318 0
1 322 -323 0
1 -322 -224 0
1 -205 317 0
1 323 -324 0
1 207 325 0
1 207 326 0
1 326 -217 0
1 -326 321 0
1 -324 327 0
1 -324 -216 0
1 324 328 0
1 324 -220 0
1 -329 330 0
1 329 244 0
1 214 223 0
1 -216 -331 0
1 216 224 0
1 216 -332 0
1 216 333 0
1 332 334 0
1 -332 -335 0
1 -244 -235 0
1 -233 -329 0
1 -336 337 0
1 338 -339 0
1 338 -214 0
1 -338 333 0
1 339 340 0
1 -221 232 0
1 -221 220 0
1 -341 232 0
1 -341 -342 0
1 341 -336 0
1 341 331 0
1 341 -343 0
1 -341 -338 0
1 225 -232 0
1 -225 -341 0
1 225 344 0
1 -345 -240 0
1 345 -152 0
1 241 346 0
1 241 -339 0
1 -241 -347 0
1 248 152 0
1 -340 -346 0
1 -340 348 0
1 -347 349 0
1 -347 -340 0
1 347 338 0
1 -350 338 0
1 351 346 0
1 351 349 0
1 351 -352 0
1 351 336 0
1 -346 -349 0
1 -346 -353 0
1 346 343 0
1 247 -350 0
1 -247 -243 0
1 247 237 0
1 -354 -352 0
1 354 355 0
1 -356 -350 0
1 356 -357 0
1 356 358 0
1 -358 -359 0
1 -358 353 0
1 -358 -360 0
1 -361 353 0
1 362 -363 0
1 363 -364 0
1 -365 -362 0
1 -357 366 0
1 -367 -354 0
1 -367 355 0
1 -367 363 0
1 368 369 0
1 -370 371 0
1 -371 -250 0
1 372 -373 0
1 -374 -368 0
1 374 372 0
1 -375 -376 0
1 -257 -377 0
1 -257 -378 0
1 257 -256 0
1 379 380 0
1 381 -379 0
1 377 -382 0
1 383 -382 0
1 -383 -379 0
1 383 257 0
1 -269 -384 0
1 -269 -385 0
1 -386 -252 0
1 387 385 0
1 -387 -388 0
1 -389 269 0
1 385 -268 0
1 385 -390 0
1 380 -391 0
1 392 -393 0
1 -392 -394 0
1 266 274 0
1 -266 -255 0
1 266 395 0
1 -266 -389 0
1 -268 254 0
1 -396 -279 0
1 -396 -397 0
1 255 387 0
1 -255 398 0
1 -255 -399 0
1 -255 -400 0
1 -401 402 0
1 -403 387 0
1 403 399 0
1 -403 402 0
1 -273 -404 0
1 -273 277 0
1 405 406 0
1 -405 272 0
1 398 283 0
1 400 404 0
1 400 271 0
1 406 -407 0
1 397 396 0
1 397 405 0
1 -408 -409 0
1 -408 -399 0
1 -407 -287 0
1 407 410 0
1 407 -290 0
1 281 -404 0
1 -281 -277 0
1 281 280 0
1 281 -411 0
1 281 282 0
1 291 412 0
1 -413 414 0
1 413 286 0
1 -411 -398 0
1 -411 -415 0
1 412 -416 0
1 -412 -274 0
1 412 -407 0
1 -412 417 0
1 -412 415 0
1 -410 -412 0
1 410 -272 0
1 -286 290 0
1 289 418 0
1 -414 419 0
1 -414 -298 0
1 414 301 0
1 420 -419 0
1 420 -421 0
1 -421 -286 0
1 -421 -277 0
1 421 -422 0
1 422 -414 0
1 -422 420 0
1 -296 -419 0
1 -296 -298 0
1 423 -295 0
1 423 418 0
1 -423 292 0
1 -424 425 0
1 -426 424 0
1 426 423 0
1 -419 427 0
1 288 -414 0
1 -288 -424 0
1 288 -287 0
1 292 -428 0
1 292 429 0
1 292 420 0
1 -427 419 0
1 -427 304 0
1 -304 -316 0
1 304 430 0
1 304 -427 0
1 431 426 0
1 431 -432 0
1 -433 -434 0
1 -433 303 0
1 -435 436 0
1 435 304 0
1 -437 297 0
1 437 438 0
1 -437 312 0
1 -430 -307 0
1 439 -440 0
1 -439 436 0
1 439 431 0
1 -312 441 0
1 312 316 0
1 -312 442 0
1 -312 -303 0
1 312 -311 0
1 443 434 0
1 443 -435 0
1 -444 -445 0
1 446 -441 0
1 -446 435 0
1 -446 -445 0
1 432 -447 0
1 432 -444 0
1 434 448 0
1 449 436 0
1 -441 431 0
1 319 -445 0
1 -447 326 0
1 448 450 0
1 448 331 0
1 451 452 0
1 445 -319 0
1 -315 445 0
1 315 -453 0
1 -315 454 0
1 455 -446 0
1 334 -456 0
1 334 244 0
1 -337 457 0
1 333 -458 0
1 456 348 0
1 450 448 0
1 450 -459 0
1 452 -460 0
1 330 461 0
1 330 450 0
1 -330 -462 0
1 -335 -457 0
1 463 -464 0
1 463 341 0
1 463 450 0
1 463 465 0
1 348 457 0
1 348 -466 0
1 -462 -463 0
1 -458 467 0
1 458 -326 0
1 -342 468 0
1 -342 339 0
1 343 -346 0
1 352 -462 0
1 -352 465 0
1 -352 344 0
1 -469 -344 0
1 469 -470 0
1 -466 471 0
1 466 469 0
1 -472 353 0
1 472 348 0
1 464 -216 0
1 -464 -473 0
1 -464 -469 0
1 464 -348 0
1 349 -474 0
1 -349 466 0
1 -349 -351 0
1 -353 -349 0
1 353 361 0
1 -353 472 0
1 -353 344 0
1 475 -362 0
1 475 -359 0
1 359 476 0
1 359 -472 0
1 470 -477 0
1 470 -475 0
1 -470 -352 0
1 470 -478 0
1 470 -479 0
1 -480 475 0
1 -481 482 0
1 -481 367 0
1 483 484 0
1 -483 485 0
1 -483 482 0
1 -485 486 0
1 -485 487 0
1 482 -483 0
1 476 488 0
1 -476 485 0
1 -476 489 0
1 476 -490 0
1 -491 -492 0
1 -491 483 0
1 -366 -493 0
1 488 -476 0
1 -488 -494 0
1 -488 -484 0
1 488 366 0
1 488 482 0
1 -490 495 0
1 -496 476 0
1 360 494 0
1 360 -496 0
1 497 -484 0
1 497 498 0
1 499 -498 0
1 -499 493 0
1 500 -501 0
1 500 -502 0
1 -501 495 0
1 -502 365 0
1 495 497 0
1 503 -500 0
1 -498 -499 0
1 394 -504 0
1 -382 383 0
1 382 381 0
1 -505 -391 0
1 505 -506 0
1 505 -275 0
1 -505 -507 0
1 -391 396 0
1 391 -507 0
1 -507 -393 0
1 507 394 0
1 -508 391 0
1 508 -505 0
1 -393 -273 0
1 -509 403 0
1 509 -401 0
1 510 402 0
1 -402 -403 0
1 -511 -409 0
1 511 505 0
1 511 399 0
1 -506 409 0
1 506 -510 0
1 506 512 0
1 513 -509 0
1 514 515 0
1 -514 516 0
1 -514 -402 0
1 517 -506 0
1 517 255 0
1 -518 510 0
1 -519 -399 0
1 520 510 0
1 -521 -516 0
1 521 522 0
1 521 -523 0
1 -521 -524 0
1 524 -525 0
1 524 412 0
1 -526 -414 0
1 526 410 0
1 523 527 0
1 525 409 0
1 -525 -401 0
1 528 -525 0
1 -528 -529 0
1 416 -296 0
1 -530 531 0
1 530 412 0
1 532 -533 0
1 -534 -535 0
1 -534 536 0
1 -537 -526 0
1 -537 428 0
1 -538 -526 0
1 -539 -532 0
1 539 540 0
1 533 527 0
1 533 541 0
1 542 418 0
1 -429 -543 0
1 429 421 0
1 -429 -292 0
1 -544 -288 0
1 428 537 0
1 543 545 0
1 543 -429 0
1 -546 542 0
1 -546 428 0
1 546 429 0
1 536 -547 0
1 -536 -544 0
1 442 -426 0
1 -442 430 0
1 -442 -548 0
1 -545 443 0
1 -545 -543 0
1 545 -426 0
1 -549 550 0
1 549 551 0
1 552 -446 0
1 -552 -553 0
1 548 554 0
1 548 -428 0
1 554 -441 0
1 -554 555 0
1 -554 449 0
1 -556 557 0
1 -556 436 0
1 556 -558 0
1 556 -559 0
1 -557 560 0
1 -561 -562 0
1 563 553 0
1 564 455 0
1 -438 561 0
1 -555 554 0
1 -555 565 0
1 454 -438 0
1 -454 315 0
1 566 438 0
1 566 463 0
1 -567 568 0
1 567 468 0
1 -567 566 0
1 -569 570 0
1 468 456 0
1 468 -571 0
1 459 -572 0
1 459 573 0
1 -459 458 0
1 467 -574 0
1 -467 -571 0
1 572 -467 0
1 -572 -468 0
1 -572 -575 0
1 -572 459 0
1 -453 -575 0
1 -571 -576 0
1 -575 -577 0
1 -575 458 0
1 -578 -577 0
1 -578 -579 0
1 577 -467 0
1 577 -486 0
1 -577 -580 0
1 581 -582 0
1 -583 584 0
1 -585 586 0
1 582 -587 0
1 -582 -588 0
1 -589 -590 0
1 589 -344 0
1 486 -577 0
1 486 -473 0
1 486 -591 0
1 586 578 0
1 586 592 0
1 -588 586 0
1 -593 -587 0
1 593 -592 0
1 593 589 0
1 -479 -480 0
1 -479 366 0
1 -478 491 0
1 -594 -591 0
1 594 595 0
1 596 -496 0
1 596 471 0
1 596 588 0
1 596 597 0
1 -591 596 0
1 -591 594 0
1 473 596 0
1 597 594 0
1 598 471 0
1 -598 595 0
1 -599 -471 0
1 600 -594 0
1 -477 -598 0
1 -601 -599 0
1 601 -492 0
1 -601 -598 0
1 595 492 0
1 595 598 0
1 -516 -506 0
1 602 -520 0
1 603 604 0
1 -604 605 0
1 -606 -607 0
1 -608 -609 0
1 -608 -604 0
1 529 520 0
1 529 -610 0
1 -611 -606 0
1 -611 518 0
1 607 535 0
1 605 -607 0
1 605 -611 0
1 -605 612 0
1 -613 -604 0
1 515 -611 0
1 527 -614 0
1 -527 523 0
1 -615 616 0
1 615 617 0
1 618 614 0
1 618 535 0
1 618 619 0
1 617 527 0
1 -617 -620 0
1 -621 -616 0
1 -540 539 0
1 -540 -537 0
1 -622 623 0
1 -622 617 0
1 624 625 0
1 -624 618 0
1 -626 531 0
1 627 615 0
1 627 628 0
1 625 -525 0
1 625 629 0
1 625 -624 0
1 625 615 0
1 -628 626 0
1 -628 -623 0
1 628 630 0
1 -628 -551 0
1 -628 631 0
1 -628 632 0
1 633 628 0
1 634 635 0
1 636 630 0
1 -636 637 0
1 636 638 0
1 -630 639 0
1 -630 640 0
1 -630 641 0
1 -632 -634 0
1 623 628 0
1 631 -642 0
1 559 643 0
1 -639 644 0
1 560 645 0
1 560 -556 0
1 -560 638 0
1 -645 -564 0
1 -637 565 0
1 -637 -560 0
1 -637 638 0
1 -565 637 0
1 -565 -646 0
1 -565 556 0
1 565 647 0
1 565 648 0
1 649 555 0
1 650 -558 0
1 -650 -651 0
1 652 558 0
1 -652 -653 0
1 -647 654 0
1 -647 655 0
1 -651 -645 0
1 -651 656 0
1 646 -657 0
1 646 658 0
1 -646 -652 0
1 659 -438 0
1 659 558 0
1 -656 647 0
1 -656 -569 0
1 -660 467 0
1 660 -651 0
1 661 662 0
1 661 -647 0
1 -661 -663 0
1 -663 664 0
1 -665 -666 0
1 558 662 0
1 -558 667 0
1 558 650 0
1 -662 660 0
1 662 -668 0
1 568 664 0
1 568 -567 0
1 664 -573 0
1 664 567 0
1 579 -669 0
1 -670 660 0
1 670 -664 0
1 670 -671 0
1 -672 590 0
1 -672 -568 0
1 673 671 0
1 -576 -674 0
1 584 -583 0
1 590 -675 0
1 676 -486 0
1 -676 677 0
1 674 -678 0
1 -679 590 0
1 -679 -584 0
1 -669 680 0
1 681 682 0
1 -683 684 0
1 685 -686 0
1 687 688 0
1 687 -679 0
1 -688 -683 0
1 -686 689 0
1 684 -682 0
1 -684 574 0
1 -690 -688 0
1 690 593 0
1 691 692 0
1 693 -691 0
1 694 690 0
1 -695 694 0
1 -695 691 0
1 -696 -697 0
1 696 -613 0
1 -698 613 0
1 699 -700 0
1 699 -616 0
1 699 -697 0
1 -700 609 0
1 620 -701 0
1 620 -702 0
1 620 628 0
1 703 -629 0
1 703 -704 0
1 -703 -612 0
1 -703 -705 0
1 -706 612 0
1 707 619 0
1 -642 645 0
1 -708 -709 0
1 -705 -710 0
1 -705 643 0
1 -705 703 0
1 711 -642 0
1 -641 -631 0
1 -641 619 0
1 712 -713 0
1 -712 632 0
1 714 650 0
1 -715 713 0
1 715 712 0
1 -713 -657 0
1 713 716 0
1 -713 -653 0
1 -713 712 0
1 -717 -718 0
1 -719 718 0
1 -720 -713 0
1 720 644 0
1 721 -640 0
1 -657 -660 0
1 -657 722 0
1 657 723 0
1 -724 725 0
1 -640 -657 0
1 726 -657 0
1 -726 727 0
1 654 -725 0
1 654 728 0
1 -728 654 0
1 -728 651 0
1 -729 -662 0
1 729 -668 0
1 -668 730 0
1 668 731 0
1 725 654 0
1 -732 733 0
1 -722 727 0
1 722 734 0
1 -667 -732 0
1 -735 667 0
1 735 665 0
1 -735 -658 0
1 735 -731 0
1 -675 -733 0
1 675 673 0
1 733 -732 0
1 733 731 0
1 -655 736 0
1 658 -729 0
1 -658 737 0
1 -731 -738 0
1 -731 733 0
1 680 739 0
1 680 740 0
1 -741 733 0
1 741 -742 0
1 -743 741 0
1 -744 745 0
1 744 746 0
1 739 -662 0
1 -739 747 0
1 682 592 0
1 -682 -689 0
1 -748 741 0
1 749 670 0
1 740 682 0
1 750 -751 0
1 -750 -680 0
1 750 673 0
1 750 -748 0
1 -752 -710 0
1 -752 705 0
1 710 752 0
1 753 -711 0
1 -754 -755 0
1 -754 -756 0
1 754 -757 0
1 758 754 0
1 -759 697 0
1 760 -754 0
1 -761 -717 0
1 -761 705 0
1 718 719 0
1 -718 619 0
1 762 -763 0
1 -763 -756 0
1 763 -719 0
1 757 -763 0
1 756 -761 0
1 -755 -753 0
1 764 717 0
1 -716 -709 0
1 730 765 0
1 -766 767 0
1 -766 619 0
1 -709 -768 0
1 709 -769 0
1 709 770 0
1 771 -772 0
1 773 -774 0
1 -775 769 0
1 -775 -776 0
1 777 715 0
1 777 775 0
1 776 778 0
1 776 779 0
1 765 768 0
1 738 -780 0
1 -738 671 0
1 -781 779 0
1 781 -776 0
1 -781 -782 0
1 -779 -680 0
1 -783 -745 0
1 783 775 0
1 780 738 0
1 -745 -739 0
1 745 783 0
1 745 682 0
1 747 739 0
1 -784 779 0
1 -784 781 0
1 -785 781 0
1 -786 782 0
1 782 747 0
1 -787 -756 0
1 -788 -756 0
1 -774 773 0
1 -789 -773 0
1 -790 774 0
1 -790 -787 0
1 -791 792 0
1 -793 759 0
1 -794 774 0
1 768 -766 0
1 768 773 0
1 768 709 0
1 795 -789 0
1 -795 796 0
1 -797 778 0
1 -797 -798 0
1 796 -799 0
1 -798 -800 0
1 -801 -800 0
1 800 -798 0
